p cnf 54 192
1 -2 -3 0
-1 2 -3 0
1 2 3 0
-1 -2 3 0
4 -3 0
4 -3 0
3 -4 0
-6 -4 0
-6 -5 0
4 5 6 0
9 8 0
9 1 0
-8 -1 -9 0
-10 7 0
-10 -9 0
-7 9 10 0
-8 -11 -12 0
8 11 -12 0
-8 11 12 0
8 -11 12 0
10 12 -13 0
-10 -12 -13 0
10 -12 13 0
-10 12 13 0
14 3 0
14 -3 0
13 14 -15 0
-13 -14 -15 0
13 -14 15 0
-13 14 15 0
18 -17 0
18 16 0
17 -16 -18 0
-19 -16 0
-19 18 0
16 -18 19 0
20 15 0
20 -19 0
-15 19 -20 0
21 -20 0
21 -11 0
20 11 -21 0
6 -21 -22 0
-6 21 -22 0
6 21 22 0
-6 -21 22 0
-24 12 0
-24 23 0
-12 -23 24 0
25 -11 0
25 -24 0
11 24 -25 0
-22 25 -26 0
22 -25 -26 0
-22 -25 26 0
22 25 26 0
28 -27 0
28 18 0
27 -18 -28 0
-29 10 0
-29 28 0
-10 -28 29 0
-30 -29 0
-30 27 0
29 -27 30 0
-18 -9 -31 0
18 9 -31 0
-18 9 31 0
18 -9 31 0
7 -31 -32 0
-7 31 -32 0
7 31 32 0
-7 -31 32 0
-30 32 -33 0
30 -32 -33 0
-30 -32 33 0
30 32 33 0
26 33 -34 0
-26 -33 -34 0
26 -33 34 0
-26 33 34 0
-24 27 -35 0
24 -27 -35 0
-24 -27 35 0
24 27 35 0
-36 34 0
-36 35 0
-34 -35 36 0
12 8 -37 0
-12 -8 -37 0
12 -8 37 0
-12 8 37 0
38 37 0
38 27 0
-37 -27 -38 0
39 38 0
39 2 0
-38 -2 -39 0
-39 7 -40 0
39 -7 -40 0
-39 -7 40 0
39 7 40 0
-36 -40 -41 0
36 40 -41 0
-36 40 41 0
36 -40 41 0
42 -1 0
42 -20 0
1 20 -42 0
-13 -16 -43 0
13 16 -43 0
-13 16 43 0
13 -16 43 0
-44 -39 0
-44 -43 0
39 43 44 0
45 -39 0
45 -44 0
39 44 -45 0
46 -28 0
46 14 0
28 -14 -46 0
47 -46 0
47 28 0
46 -28 -47 0
48 45 0
48 -47 0
-45 47 -48 0
-49 42 0
-49 -48 0
-42 48 49 0
-15 -2 -50 0
15 2 -50 0
-15 2 50 0
15 -2 50 0
51 -49 0
51 -50 0
49 50 -51 0
-52 -41 0
-52 -51 0
41 51 52 0
-53 43 0
-53 -31 0
-43 31 53 0
54 52 0
54 -53 0
-52 53 -54 0
45 40 51 13 0
-41 -3 0
-5 38 1 0
41 50 0
-10 39 -51 0
-51 1 0
-42 31 51 10 37 0
-27 47 11 45 -46 0
-22 2 0
-13 11 52 0
46 -7 -54 19 13 -26 0
16 3 0
46 52 11 -27 0
-22 24 0
48 15 -35 53 0
46 5 -32 -6 11 -22 0
-13 -54 -25 32 -38 0
1 -12 -16 13 49 -48 0
2 53 51 6 0
-53 -39 24 0
-17 -19 -52 -11 36 0
-17 10 -11 -30 -50 16 0
22 -2 0
49 -38 -44 22 -12 0
33 -26 -18 -2 0
12 32 0
-27 -45 -36 -29 14 -44 0
-47 -9 -40 49 -8 -52 0
-24 -8 0
6 45 21 24 -3 10 0
-17 -3 -4 -10 0
40 -51 0
-18 -22 0
47 25 -35 -40 -43 0
-9 43 0
-23 9 -12 45 14 -36 0
-41 -42 24 -27 9 0
-25 1 34 41 -4 10 0
-51 -28 -46 34 -50 0
13 29 1 -16 0
-30 -25 21 -44 0
-1 53 0
33 -6 -51 0
21 -48 8 -18 0
54 0
